50

99 23 297
96 25 298
95 26 287
95 7 299
91 15 279
91 7 275
91 26 288
90 24 293
89 23 285
86 23 281
85 1 256
85 11 263
84 18 293
79 8 285
76 17 238
69 6 239
68 15 275
68 8 245
65 19 280
64 16 264
63 2 214
58 18 255
58 4 244
54 15 282
53 8 294
52 3 227
50 10 235
49 11 233
48 5 208
48 6 295
45 13 280
45 6 264
43 12 247
42 6 299
36 2 140
35 10 291
33 1 107
31 6 143
31 5 285
30 1 181
30 0 117
30 1 297
29 6 169
27 1 288
27 9 263
26 7 133
22 2 200
22 7 109
22 6 166
21 6 261
